&inputph
  tr2_ph = 1.0d-14,
  prefix = 'fig4_co_thiol',
  outdir = './tmp_fig4_co',
  fildyn = 'fig4_co.dyn',
  ldisp  = .true.,
  nq1 = 1, nq2 = 1, nq3 = 4
/

