&projwfc
  prefix  = 'fig2_co',
  outdir  = './tmp_fig2_co',
  DeltaE  = 0.01,
  degauss = 0.02,
  Emin    = -10.0,
  Emax    = 10.0,
  filpdos = 'fig2_co_pdos'
/

