seedname = fig4_pure
num_wann = 40
num_bands = 320
dis_win_min = -10.0
dis_win_max = 10.0
begin projections
Au: s; d
end projections
mp_grid = 4 4 64
begin kpoints
automatic
4 4 64 0 0 0
end kpoints

