&inputph
  tr2_ph = 1.0d-14,
  prefix = 'fig4_pure_au',
  outdir = './tmp_fig4_pure',
  fildyn = 'fig4_pure.dyn',
  ldisp  = .true.,
  nq1 = 1, nq2 = 1, nq3 = 4
/

