&inputpp
  prefix = 'fig4_pure_au',
  outdir = './tmp_fig4_pure',
  write_mmn = .true.,
  write_amn = .true.,
  write_unk = .true.,
/

