&control
  calculation   = 'scf',
  prefix        = 'fig4_pure_au',
  outdir        = './tmp_fig4_pure',
  pseudo_dir    = './pseudo',
  verbosity     = 'high'
/
&system
  ibrav      = 0,
  nat        = 23,
  ntyp       = 1,
  ecutwfc    = 50.0,
  ecutrho    = 400.0,
  occupations= 'smearing',
  smearing   = 'mp',
  degauss    = 0.02,
  nbnd       = 220,
  nspin      = 1
/
&electrons
  conv_thr    = 1.0d-8,
  mixing_beta = 0.3
/
ATOMIC_SPECIES
Au 196.96657 Au.pbe-spn-rrkjus_psl.1.0.0.UPF

CELL_PARAMETERS angstrom
25.0  0.0  0.0
0.0  25.0  0.0
0.0   0.0  35.0

ATOMIC_POSITIONS angstrom
# placeholder — replaced by SLURM
<RELAXED_POSITIONS_WILL_BE_INSERTED>
K_POINTS automatic
1 1 16 0 0 0

