&DOS
  prefix = 'fig2_mn',
  outdir = './tmp_fig2_mn',
  DeltaE = 0.01,
  Emin   = -10.0,
  Emax   = 10.0,
  fildos = 'fig2_mn_dos.dat'
/

