&DOS
  prefix = 'fig1b',
  outdir = './tmp_fig1b',
  DeltaE = 0.01,
  Emin   = -10.0,
  Emax   = 10.0,
  fildos = 'fig1b_dos.dat'
/

