&control
  calculation   = 'nscf',
  prefix        = 'fig2_pure_au',
  outdir        = './tmp_fig2',
  pseudo_dir    = './pseudo',
  wf_collect    = .true.
/
&system
  ibrav      = 0,
  nat        = 23,
  ntyp       = 1,
  ecutwfc    = 50.0,
  ecutrho    = 400.0,
  occupations= 'smearing',
  smearing   = 'mp',
  degauss    = 0.02,
  nbnd       = 200,
  nspin      = 1
/
&electrons
  conv_thr    = 1.0d-8
/
ATOMIC_SPECIES
Au 196.96657 Au.pbe-spn-rrkjus_psl.1.0.0.UPF

CELL_PARAMETERS angstrom
25.0  0.0  0.0
0.0  25.0  0.0
0.0   0.0  35.0

ATOMIC_POSITIONS angstrom
# placeholder; will be replaced by final relaxed positions
Au  -1.442000  -1.442000  -12.884000
Au   1.442000  -1.442000  -12.884000
Au  -1.442000   1.442000  -12.884000
Au   1.442000   1.442000  -12.884000
Au  -1.442000  -1.442000  -10.000000
Au   1.442000  -1.442000  -10.000000
Au  -1.442000   1.442000  -10.000000
Au   1.442000   1.442000  -10.000000

Au   0.000000   0.000000   -8.652000
Au   0.000000   0.000000   -5.768000
Au   0.000000   0.000000   -2.884000
Au   0.000000   0.000000    0.000000
Au   0.000000   0.000000    2.884000
Au   0.000000   0.000000    5.768000
Au   0.000000   0.000000    8.652000

Au  -1.442000  -1.442000   10.000000
Au   1.442000  -1.442000   10.000000
Au  -1.442000   1.442000   10.000000
Au   1.442000   1.442000   10.000000
Au  -1.442000  -1.442000   12.884000
Au   1.442000  -1.442000   12.884000
Au  -1.442000   1.442000   12.884000
Au   1.442000   1.442000   12.884000

K_POINTS automatic
1 1 64 0 0 0

