&control
  calculation   = 'relax',
  prefix        = 'fig4_thiol',
  outdir        = './tmp_fig4_thiol',
  pseudo_dir    = './pseudo',
  tstress       = .true.,
  tprnfor       = .true.,
  forc_conv_thr = 1.0d-4,
  etot_conv_thr = 1.0d-5
/
&system
  ibrav      = 0,
  nat        = 23,
  ntyp       = 2,
  ecutwfc    = 60.0,
  ecutrho    = 480.0,
  occupations= 'smearing',
  smearing   = 'mp',
  degauss    = 0.02,
  nbnd       = 260,
  nspin      = 1
/
&electrons
  conv_thr    = 1.0d-8,
  mixing_beta = 0.3
/
&ions
  ion_dynamics = 'bfgs',
  nstep        = 200
/
ATOMIC_SPECIES
Au 196.96657 Au.pbe-spn-rrkjus_psl.1.0.0.UPF
S   32.065    S.pbe-n-rrkjus_psl.1.0.0.UPF

CELL_PARAMETERS angstrom
25.0  0.0  0.0
0.0  25.0  0.0
0.0   0.0  40.0

ATOMIC_POSITIONS angstrom
# (same 23 positions as xyz — copy them here)
Au  -1.442000  -1.442000  -12.884000
Au   1.442000  -1.442000  -12.884000
Au  -1.442000   1.442000  -12.884000
Au   1.442000   1.442000  -12.884000
Au  -1.442000  -1.442000  -10.000000
Au   1.442000  -1.442000  -10.000000
Au  -1.442000   1.442000  -10.000000
Au   1.442000   1.442000  -10.000000

Au   0.000000   0.000000   -8.652000
S    0.000000   0.000000   -5.768000
Au   0.000000   0.000000   -2.884000
Au   0.000000   0.000000    0.000000
Au   0.000000   0.000000    2.884000
S    0.000000   0.000000    5.768000
Au   0.000000   0.000000    8.652000

Au  -1.442000  -1.442000   10.000000
Au   1.442000  -1.442000   10.000000
Au  -1.442000   1.442000   10.000000
Au   1.442000   1.442000   10.000000
Au  -1.442000  -1.442000   12.884000
Au   1.442000  -1.442000   12.884000
Au  -1.442000   1.442000   12.884000
Au   1.442000   1.442000   12.884000

K_POINTS automatic
1 1 1 0 0 0

