&projwfc
  prefix  = 'fig2_thiol',
  outdir  = './tmp_fig2_thiol',
  DeltaE  = 0.01,
  degauss = 0.02,
  Emin    = -10.0,
  Emax    = 10.0,
  filpdos = 'fig2_thiol_pdos'
/

