&control
  calculation   = 'nscf',
  prefix        = 'fig4_ni_thiol',
  outdir        = './tmp_fig4_ni',
  pseudo_dir    = './pseudo',
  wf_collect    = .true.
/
&system
  ibrav      = 0,
  nat        = 23,
  ntyp       = 3,
  ecutwfc    = 60.0,
  ecutrho    = 480.0,
  occupations= 'fixed',
  nbnd       = 320,
  nspin      = 2,
  starting_magnetization(3) = 0.6
/
&electrons
  conv_thr    = 1.0d-8
/
ATOMIC_SPECIES
Au 196.96657 Au.pbe-spn-rrkjus_psl.1.0.0.UPF
S   32.065    S.pbe-n-rrkjus_psl.1.0.0.UPF
Ni  58.6934   Ni.pbe-spn-rrkjus_psl.1.0.0.UPF

CELL_PARAMETERS angstrom
25.0  0.0  0.0
0.0  25.0  0.0
0.0   0.0  40.0

ATOMIC_POSITIONS angstrom
# PLACEHOLDER: will be replaced automatically by SLURM
<RELAXED_POSITIONS_WILL_BE_INSERTED>
K_POINTS automatic
4 4 64 0 0 0

