&inputph
  tr2_ph = 1.0d-14,
  prefix = 'fig4_ni_thiol',
  outdir = './tmp_fig4_ni',
  fildyn = 'fig4_ni.dyn',
  ldisp  = .true.,
  nq1 = 1, nq2 = 1, nq3 = 4
/

