&DOS
  prefix = 'fig2_ni',
  outdir = './tmp_fig2_ni',
  DeltaE = 0.01,
  Emin   = -10.0,
  Emax   = 10.0,
  fildos = 'fig2_ni_dos.dat'
/

