&projwfc
  prefix  = 'fig2_ni',
  outdir  = './tmp_fig2_ni',
  DeltaE  = 0.01,
  degauss = 0.02,
  Emin    = -10.0,
  Emax    = 10.0,
  filpdos = 'fig2_ni_pdos'
/

