&inputph
  tr2_ph = 1.0d-14,
  prefix = 'fig3c_ni',
  outdir = './tmp_fig3c_ni',
  fildyn = 'fig3c_ni.dyn',
  ldisp  = .true.,
  nq1 = 1, nq2 = 1, nq3 = 12
/

