&input
  fildyn = 'fig3c_ni.dyn',
  flfrc  = 'fig3c_ni.fc',
  zasr   = 'simple'
/

